(declare-const |x':30| Int)
(declare-const |K:35| Int)
(declare-const tmp Int)
(declare-const |tmp':31| Int)
(declare-const |havoc:0:29| Int)
(declare-const havoc Int)
(assert (and (or (not (<= (- |K:35|) 0)) (= (+ |x':30| (* -8 |K:35|) -5) 0))
               (or (and (= |K:35| 0) (= (+ (- |tmp':31|) tmp) 0)
                          (= (+ (- |x':30|) 5) 0))
                     (and (<= (+ (- |K:35|) 1) 0) (<= (+ (- |x':30|) 9) 0)))
               (<= (- |K:35|) 0) (< (- |x':30|) 0) (= |havoc:0:29| 0)
               (not (= (+ havoc -5) 0))))
(check-sat)
